
Gurobi 6.5.2 (win64) logging started 07/24/16 17:34:26


Gurobi 6.5.2 (win64) logging started 07/24/16 17:34:26

Optimize a model with 2720 rows, 712 columns and 6921 nonzeros
Coefficient statistics:
  Matrix range    [6e-08, 1e+03]
  Objective range [1e+00, 1e+00]
  Bounds range    [1e+00, 1e+00]
  RHS range       [6e-06, 2e+03]
Presolve removed 2486 rows and 467 columns
Presolve time: 0.00s
Presolved: 234 rows, 245 columns, 1024 nonzeros
Variable types: 245 continuous, 0 integer (0 binary)

Root relaxation: objective 1.935946e+01, 239 iterations, 0.02 seconds

    Nodes    |    Current Node    |     Objective Bounds      |     Work
 Expl Unexpl |  Obj  Depth IntInf | Incumbent    BestBd   Gap | It/Node Time

*    0     0               0      19.3594637   19.35946  0.00%     -    0s

Explored 0 nodes (239 simplex iterations) in 0.02 seconds
Thread count was 8 (of 8 available processors)

Optimal solution found (tolerance 1.00e-04)
Best objective 1.935946368338e+01, best bound 1.935946368338e+01, gap 0.0%

Wrote requested result file 'H1\instance18\\Results18EC_Sol2.lp'

